122     4       
17      22      26      19      
0       0       0       0       0       3       2       3       4       
5       0       9       0       0       3       8       16      27      
10      0       1       0       0       1       25      
3       0       8       0       0       3       5       6       14      
9       0       0       0       8       3       7       10      23      
2       0       0       10      0       2       45      94      
3       0       0       0       3       3       9       11      12      
1       0       0       6       0       2       13      20      
7       0       0       3       0       3       17      51      55      
3       0       6       0       0       3       15      19      108     
3       0       0       5       0       3       21      28      95      
2       0       1       0       0       3       18      39      60      
4       0       0       9       0       3       15      22      33      
4       0       3       0       0       2       34      114     
5       0       1       0       0       1       26      
4       0       0       1       0       1       38      
2       0       9       0       0       3       19      40      92      
4       0       0       0       8       2       43      64      
1       0       8       0       0       3       32      84      118     
2       7       0       0       0       3       31      47      68      
9       2       0       0       0       1       113     
9       5       0       0       0       2       24      90      
4       10      0       0       0       2       29      64      
10      0       0       0       10      2       30      87      
2       0       1       0       0       3       53      75      76      
3       10      0       0       0       1       80      
1       10      0       0       0       3       35      46      82      
4       0       0       0       2       1       119     
7       0       10      0       0       2       37      85      
6       0       9       0       0       1       36      
5       0       0       1       0       1       41      
2       0       0       0       10      1       57      
8       7       0       0       0       1       109     
1       10      0       0       0       1       36      
5       0       0       0       9       2       88      97      
8       0       8       0       0       1       76      
8       0       10      0       0       1       50      
2       0       0       0       8       2       59      77      
7       0       0       0       7       1       44      
1       0       5       0       0       2       52      73      
4       0       0       4       0       3       42      79      104     
2       0       0       0       1       1       61      
1       0       0       5       0       1       98      
1       5       0       0       0       1       59      
10      0       8       0       0       1       115     
10      0       0       9       0       1       78      
3       0       3       0       0       3       48      49      63      
9       10      0       0       0       2       67      69      
10      0       0       2       0       1       54      
8       1       0       0       0       1       115     
9       0       0       6       0       2       70      96      
6       1       0       0       0       1       57      
3       2       0       0       0       2       83      117     
2       3       0       0       0       3       56      58      102     
1       0       1       0       0       1       62      
9       0       4       0       0       2       65      111     
3       0       0       2       0       2       93      119     
2       9       0       0       0       1       95      
9       0       0       0       9       3       66      70      86      
8       0       1       0       0       3       71      86      91      
2       0       1       0       0       2       72      74      
2       0       8       0       0       1       101     
5       0       5       0       0       1       82      
7       0       1       0       0       1       85      
7       0       0       10      0       2       79      83      
5       0       0       8       0       1       96      
9       0       3       0       0       1       101     
7       0       0       2       0       1       120     
7       4       0       0       0       1       110     
2       0       10      0       0       1       87      
8       3       0       0       0       3       99      100     120     
10      10      0       0       0       1       82      
2       0       8       0       0       1       81      
3       0       0       2       0       1       116     
1       0       0       9       0       2       115     121     
7       0       0       0       4       1       92      
10      0       0       0       6       1       119     
8       0       8       0       0       1       92      
9       0       9       0       0       1       103     
9       0       5       0       0       1       85      
2       0       9       0       0       1       106     
7       0       0       9       0       1       96      
3       0       2       0       0       1       95      
3       0       0       8       0       1       89      
6       0       0       5       0       1       100     
5       0       0       10      0       1       88      
9       0       0       10      0       1       116     
7       0       0       0       10      1       109     
1       0       0       0       9       1       113     
3       0       0       0       6       1       116     
9       0       7       0       0       1       107     
3       0       0       0       4       1       97      
10      0       0       3       0       1       117     
3       0       0       4       0       1       109     
6       0       8       0       0       1       98      
9       10      0       0       0       1       99      
3       0       0       8       0       1       108     
9       7       0       0       0       1       103     
6       0       0       6       0       1       108     
7       6       0       0       0       1       101     
7       9       0       0       0       2       103     111     
3       0       0       0       1       1       105     
7       0       0       0       9       1       110     
1       0       0       5       0       1       105     
5       0       0       0       8       1       107     
4       0       0       0       10      1       113     
4       0       0       6       0       1       112     
1       2       0       0       0       1       110     
3       9       0       0       0       1       111     
8       4       0       0       0       1       112     
3       0       0       0       1       1       112     
2       0       0       0       7       1       118     
5       0       0       2       0       1       114     
6       2       0       0       0       1       117     
5       0       0       0       3       1       120     
6       0       9       0       0       1       118     
4       0       0       8       0       1       121     
5       0       3       0       0       1       121     
7       0       3       0       0       1       122     
1       0       9       0       0       1       122     
2       0       0       2       0       1       122     
0       0       0       0       0       0       